clingo version 5.3.0
Reading from ..._n150_r36_s36_ps1_pr36_u36_o36_N001.lp ...
Solving...
Answer: 1
init(object(order,1),value(pickingStation,1)). init(object(order,2),value(pickingStation,1)). init(object(order,3),value(pickingStation,1)). init(object(order,4),value(pickingStation,1)). init(object(order,5),value(pickingStation,1)). init(object(order,6),value(pickingStation,1)). init(object(order,7),value(pickingStation,1)). init(object(order,8),value(pickingStation,1)). init(object(order,9),value(pickingStation,1)). init(object(order,10),value(pickingStation,1)). init(object(order,11),value(pickingStation,1)). init(object(order,12),value(pickingStation,1)). init(object(order,13),value(pickingStation,1)). init(object(order,14),value(pickingStation,1)). init(object(order,15),value(pickingStation,1)). init(object(order,16),value(pickingStation,1)). init(object(order,17),value(pickingStation,1)). init(object(order,18),value(pickingStation,1)). init(object(order,19),value(pickingStation,1)). init(object(order,20),value(pickingStation,1)). init(object(order,21),value(pickingStation,1)). init(object(order,22),value(pickingStation,1)). init(object(order,23),value(pickingStation,1)). init(object(order,24),value(pickingStation,1)). init(object(order,25),value(pickingStation,1)). init(object(order,26),value(pickingStation,1)). init(object(order,27),value(pickingStation,1)). init(object(order,28),value(pickingStation,1)). init(object(order,29),value(pickingStation,1)). init(object(order,30),value(pickingStation,1)). init(object(order,31),value(pickingStation,1)). init(object(order,32),value(pickingStation,1)). init(object(order,33),value(pickingStation,1)). init(object(order,34),value(pickingStation,1)). init(object(order,35),value(pickingStation,1)). init(object(order,36),value(pickingStation,1)). init(object(highway,1),value(at,(1,1))). init(object(highway,2),value(at,(2,1))). init(object(highway,3),value(at,(3,1))). init(object(highway,4),value(at,(4,1))). init(object(highway,5),value(at,(5,1))). init(object(highway,7),value(at,(7,1))). init(object(highway,8),value(at,(8,1))). init(object(highway,9),value(at,(9,1))). init(object(highway,10),value(at,(10,1))). init(object(highway,11),value(at,(1,2))). init(object(highway,12),value(at,(2,2))). init(object(highway,13),value(at,(3,2))). init(object(highway,14),value(at,(4,2))). init(object(highway,15),value(at,(5,2))). init(object(highway,16),value(at,(6,2))). init(object(highway,17),value(at,(7,2))). init(object(highway,18),value(at,(8,2))). init(object(highway,19),value(at,(9,2))). init(object(highway,20),value(at,(10,2))). init(object(highway,21),value(at,(1,3))). init(object(highway,24),value(at,(4,3))). init(object(highway,27),value(at,(7,3))). init(object(highway,30),value(at,(10,3))). init(object(highway,31),value(at,(1,4))). init(object(highway,34),value(at,(4,4))). init(object(highway,37),value(at,(7,4))). init(object(highway,40),value(at,(10,4))). init(object(highway,41),value(at,(1,5))). init(object(highway,42),value(at,(2,5))). init(object(highway,43),value(at,(3,5))). init(object(highway,44),value(at,(4,5))). init(object(highway,45),value(at,(5,5))). init(object(highway,46),value(at,(6,5))). init(object(highway,47),value(at,(7,5))). init(object(highway,48),value(at,(8,5))). init(object(highway,49),value(at,(9,5))). init(object(highway,50),value(at,(10,5))). init(object(highway,51),value(at,(1,6))). init(object(highway,54),value(at,(4,6))). init(object(highway,57),value(at,(7,6))). init(object(highway,60),value(at,(10,6))). init(object(highway,61),value(at,(1,7))). init(object(highway,64),value(at,(4,7))). init(object(highway,67),value(at,(7,7))). init(object(highway,70),value(at,(10,7))). init(object(highway,71),value(at,(1,8))). init(object(highway,72),value(at,(2,8))). init(object(highway,73),value(at,(3,8))). init(object(highway,74),value(at,(4,8))). init(object(highway,75),value(at,(5,8))). init(object(highway,76),value(at,(6,8))). init(object(highway,77),value(at,(7,8))). init(object(highway,78),value(at,(8,8))). init(object(highway,79),value(at,(9,8))). init(object(highway,80),value(at,(10,8))). init(object(highway,81),value(at,(1,9))). init(object(highway,84),value(at,(4,9))). init(object(highway,87),value(at,(7,9))). init(object(highway,90),value(at,(10,9))). init(object(highway,91),value(at,(1,10))). init(object(highway,94),value(at,(4,10))). init(object(highway,97),value(at,(7,10))). init(object(highway,100),value(at,(10,10))). init(object(highway,101),value(at,(1,11))). init(object(highway,102),value(at,(2,11))). init(object(highway,103),value(at,(3,11))). init(object(highway,104),value(at,(4,11))). init(object(highway,105),value(at,(5,11))). init(object(highway,106),value(at,(6,11))). init(object(highway,107),value(at,(7,11))). init(object(highway,108),value(at,(8,11))). init(object(highway,109),value(at,(9,11))). init(object(highway,110),value(at,(10,11))). init(object(highway,117),value(at,(7,12))). init(object(highway,118),value(at,(8,12))). init(object(highway,119),value(at,(9,12))). init(object(highway,120),value(at,(10,12))). init(object(node,1),value(at,(1,1))). init(object(node,2),value(at,(2,1))). init(object(node,3),value(at,(3,1))). init(object(node,4),value(at,(4,1))). init(object(node,5),value(at,(5,1))). init(object(node,6),value(at,(6,1))). init(object(node,7),value(at,(7,1))). init(object(node,8),value(at,(8,1))). init(object(node,9),value(at,(9,1))). init(object(node,10),value(at,(10,1))). init(object(node,11),value(at,(1,2))). init(object(node,12),value(at,(2,2))). init(object(node,13),value(at,(3,2))). init(object(node,14),value(at,(4,2))). init(object(node,15),value(at,(5,2))). init(object(node,16),value(at,(6,2))). init(object(node,17),value(at,(7,2))). init(object(node,18),value(at,(8,2))). init(object(node,19),value(at,(9,2))). init(object(node,20),value(at,(10,2))). init(object(node,21),value(at,(1,3))). init(object(node,22),value(at,(2,3))). init(object(node,23),value(at,(3,3))). init(object(node,24),value(at,(4,3))). init(object(node,25),value(at,(5,3))). init(object(node,26),value(at,(6,3))). init(object(node,27),value(at,(7,3))). init(object(node,28),value(at,(8,3))). init(object(node,29),value(at,(9,3))). init(object(node,30),value(at,(10,3))). init(object(node,31),value(at,(1,4))). init(object(node,32),value(at,(2,4))). init(object(node,33),value(at,(3,4))). init(object(node,34),value(at,(4,4))). init(object(node,35),value(at,(5,4))). init(object(node,36),value(at,(6,4))). init(object(node,37),value(at,(7,4))). init(object(node,38),value(at,(8,4))). init(object(node,39),value(at,(9,4))). init(object(node,40),value(at,(10,4))). init(object(node,41),value(at,(1,5))). init(object(node,42),value(at,(2,5))). init(object(node,43),value(at,(3,5))). init(object(node,44),value(at,(4,5))). init(object(node,45),value(at,(5,5))). init(object(node,46),value(at,(6,5))). init(object(node,47),value(at,(7,5))). init(object(node,48),value(at,(8,5))). init(object(node,49),value(at,(9,5))). init(object(node,50),value(at,(10,5))). init(object(node,51),value(at,(1,6))). init(object(node,52),value(at,(2,6))). init(object(node,53),value(at,(3,6))). init(object(node,54),value(at,(4,6))). init(object(node,55),value(at,(5,6))). init(object(node,56),value(at,(6,6))). init(object(node,57),value(at,(7,6))). init(object(node,58),value(at,(8,6))). init(object(node,59),value(at,(9,6))). init(object(node,60),value(at,(10,6))). init(object(node,61),value(at,(1,7))). init(object(node,62),value(at,(2,7))). init(object(node,63),value(at,(3,7))). init(object(node,64),value(at,(4,7))). init(object(node,65),value(at,(5,7))). init(object(node,66),value(at,(6,7))). init(object(node,67),value(at,(7,7))). init(object(node,68),value(at,(8,7))). init(object(node,69),value(at,(9,7))). init(object(node,70),value(at,(10,7))). init(object(node,71),value(at,(1,8))). init(object(node,72),value(at,(2,8))). init(object(node,73),value(at,(3,8))). init(object(node,74),value(at,(4,8))). init(object(node,75),value(at,(5,8))). init(object(node,76),value(at,(6,8))). init(object(node,77),value(at,(7,8))). init(object(node,78),value(at,(8,8))). init(object(node,79),value(at,(9,8))). init(object(node,80),value(at,(10,8))). init(object(node,81),value(at,(1,9))). init(object(node,82),value(at,(2,9))). init(object(node,83),value(at,(3,9))). init(object(node,84),value(at,(4,9))). init(object(node,85),value(at,(5,9))). init(object(node,86),value(at,(6,9))). init(object(node,87),value(at,(7,9))). init(object(node,88),value(at,(8,9))). init(object(node,89),value(at,(9,9))). init(object(node,90),value(at,(10,9))). init(object(node,91),value(at,(1,10))). init(object(node,92),value(at,(2,10))). init(object(node,93),value(at,(3,10))). init(object(node,94),value(at,(4,10))). init(object(node,95),value(at,(5,10))). init(object(node,96),value(at,(6,10))). init(object(node,97),value(at,(7,10))). init(object(node,98),value(at,(8,10))). init(object(node,99),value(at,(9,10))). init(object(node,100),value(at,(10,10))). init(object(node,101),value(at,(1,11))). init(object(node,102),value(at,(2,11))). init(object(node,103),value(at,(3,11))). init(object(node,104),value(at,(4,11))). init(object(node,105),value(at,(5,11))). init(object(node,106),value(at,(6,11))). init(object(node,107),value(at,(7,11))). init(object(node,108),value(at,(8,11))). init(object(node,109),value(at,(9,11))). init(object(node,110),value(at,(10,11))). init(object(node,111),value(at,(1,12))). init(object(node,112),value(at,(2,12))). init(object(node,113),value(at,(3,12))). init(object(node,114),value(at,(4,12))). init(object(node,115),value(at,(5,12))). init(object(node,116),value(at,(6,12))). init(object(node,117),value(at,(7,12))). init(object(node,118),value(at,(8,12))). init(object(node,119),value(at,(9,12))). init(object(node,120),value(at,(10,12))). init(object(node,121),value(at,(1,13))). init(object(node,122),value(at,(2,13))). init(object(node,123),value(at,(3,13))). init(object(node,124),value(at,(4,13))). init(object(node,125),value(at,(5,13))). init(object(node,126),value(at,(6,13))). init(object(node,127),value(at,(7,13))). init(object(node,128),value(at,(8,13))). init(object(node,129),value(at,(9,13))). init(object(node,130),value(at,(10,13))). init(object(node,131),value(at,(1,14))). init(object(node,132),value(at,(2,14))). init(object(node,133),value(at,(3,14))). init(object(node,134),value(at,(4,14))). init(object(node,135),value(at,(5,14))). init(object(node,136),value(at,(6,14))). init(object(node,137),value(at,(7,14))). init(object(node,138),value(at,(8,14))). init(object(node,139),value(at,(9,14))). init(object(node,140),value(at,(10,14))). init(object(node,141),value(at,(1,15))). init(object(node,142),value(at,(2,15))). init(object(node,143),value(at,(3,15))). init(object(node,144),value(at,(4,15))). init(object(node,145),value(at,(5,15))). init(object(node,146),value(at,(6,15))). init(object(node,147),value(at,(7,15))). init(object(node,148),value(at,(8,15))). init(object(node,149),value(at,(9,15))). init(object(node,150),value(at,(10,15))). init(object(order,1),value(line,(35,1))). init(object(order,2),value(line,(28,1))). init(object(order,3),value(line,(24,1))). init(object(order,4),value(line,(33,1))). init(object(order,5),value(line,(29,1))). init(object(order,6),value(line,(31,1))). init(object(order,7),value(line,(34,1))). init(object(order,8),value(line,(36,1))). init(object(order,9),value(line,(32,1))). init(object(order,10),value(line,(16,1))). init(object(order,11),value(line,(18,1))). init(object(order,12),value(line,(21,1))). init(object(order,13),value(line,(11,1))). init(object(order,14),value(line,(26,1))). init(object(order,15),value(line,(27,1))). init(object(order,16),value(line,(30,1))). init(object(order,17),value(line,(20,1))). init(object(order,18),value(line,(22,1))). init(object(order,19),value(line,(25,1))). init(object(order,20),value(line,(14,1))). init(object(order,21),value(line,(3,1))). init(object(order,22),value(line,(6,1))). init(object(order,23),value(line,(8,1))). init(object(order,24),value(line,(23,1))). init(object(order,25),value(line,(13,1))). init(object(order,26),value(line,(15,1))). init(object(order,27),value(line,(19,1))). init(object(order,28),value(line,(1,1))). init(object(order,29),value(line,(10,1))). init(object(order,30),value(line,(12,1))). init(object(order,31),value(line,(2,1))). init(object(order,32),value(line,(4,1))). init(object(order,33),value(line,(7,1))). init(object(order,34),value(line,(9,1))). init(object(order,35),value(line,(5,1))). init(object(order,36),value(line,(17,1))). init(object(pickingStation,1),value(at,(6,1))). init(object(product,1),value(on,(36,1))). init(object(product,2),value(on,(35,1))). init(object(product,3),value(on,(34,1))). init(object(product,4),value(on,(33,1))). init(object(product,5),value(on,(31,1))). init(object(product,6),value(on,(30,1))). init(object(product,7),value(on,(29,1))). init(object(product,8),value(on,(28,1))). init(object(product,9),value(on,(27,1))). init(object(product,10),value(on,(26,1))). init(object(product,11),value(on,(25,1))). init(object(product,12),value(on,(24,1))). init(object(product,13),value(on,(23,1))). init(object(product,14),value(on,(22,1))). init(object(product,15),value(on,(21,1))). init(object(product,16),value(on,(20,1))). init(object(product,17),value(on,(19,1))). init(object(product,18),value(on,(18,1))). init(object(product,19),value(on,(17,1))). init(object(product,20),value(on,(16,1))). init(object(product,21),value(on,(32,1))). init(object(product,22),value(on,(15,1))). init(object(product,23),value(on,(14,1))). init(object(product,24),value(on,(13,1))). init(object(product,25),value(on,(12,1))). init(object(product,26),value(on,(11,1))). init(object(product,27),value(on,(10,1))). init(object(product,28),value(on,(9,1))). init(object(product,29),value(on,(8,1))). init(object(product,30),value(on,(7,1))). init(object(product,31),value(on,(6,1))). init(object(product,32),value(on,(5,1))). init(object(product,33),value(on,(4,1))). init(object(product,34),value(on,(3,1))). init(object(product,35),value(on,(2,1))). init(object(product,36),value(on,(1,1))). init(object(robot,1),value(at,(1,12))). init(object(robot,2),value(at,(2,12))). init(object(robot,3),value(at,(3,12))). init(object(robot,4),value(at,(4,12))). init(object(robot,5),value(at,(5,12))). init(object(robot,6),value(at,(6,12))). init(object(robot,7),value(at,(1,13))). init(object(robot,8),value(at,(2,13))). init(object(robot,9),value(at,(3,13))). init(object(robot,10),value(at,(4,13))). init(object(robot,11),value(at,(5,13))). init(object(robot,12),value(at,(6,13))). init(object(robot,13),value(at,(7,13))). init(object(robot,14),value(at,(8,13))). init(object(robot,15),value(at,(9,13))). init(object(robot,16),value(at,(10,13))). init(object(robot,17),value(at,(1,14))). init(object(robot,18),value(at,(2,14))). init(object(robot,19),value(at,(3,14))). init(object(robot,20),value(at,(4,14))). init(object(robot,21),value(at,(5,14))). init(object(robot,22),value(at,(6,14))). init(object(robot,23),value(at,(7,14))). init(object(robot,24),value(at,(8,14))). init(object(robot,25),value(at,(9,14))). init(object(robot,26),value(at,(10,14))). init(object(robot,27),value(at,(1,15))). init(object(robot,28),value(at,(2,15))). init(object(robot,29),value(at,(3,15))). init(object(robot,30),value(at,(4,15))). init(object(robot,31),value(at,(5,15))). init(object(robot,32),value(at,(6,15))). init(object(robot,33),value(at,(7,15))). init(object(robot,34),value(at,(8,15))). init(object(robot,35),value(at,(9,15))). init(object(robot,36),value(at,(10,15))). init(object(shelf,1),value(at,(2,3))). init(object(shelf,2),value(at,(3,3))). init(object(shelf,3),value(at,(5,3))). init(object(shelf,4),value(at,(6,3))). init(object(shelf,5),value(at,(8,3))). init(object(shelf,6),value(at,(9,3))). init(object(shelf,7),value(at,(2,4))). init(object(shelf,8),value(at,(3,4))). init(object(shelf,9),value(at,(5,4))). init(object(shelf,10),value(at,(6,4))). init(object(shelf,11),value(at,(8,4))). init(object(shelf,12),value(at,(9,4))). init(object(shelf,13),value(at,(2,6))). init(object(shelf,14),value(at,(3,6))). init(object(shelf,15),value(at,(5,6))). init(object(shelf,16),value(at,(6,6))). init(object(shelf,17),value(at,(8,6))). init(object(shelf,18),value(at,(9,6))). init(object(shelf,19),value(at,(2,7))). init(object(shelf,20),value(at,(3,7))). init(object(shelf,21),value(at,(5,7))). init(object(shelf,22),value(at,(6,7))). init(object(shelf,23),value(at,(8,7))). init(object(shelf,24),value(at,(9,7))). init(object(shelf,25),value(at,(2,9))). init(object(shelf,26),value(at,(3,9))). init(object(shelf,27),value(at,(5,9))). init(object(shelf,28),value(at,(6,9))). init(object(shelf,29),value(at,(8,9))). init(object(shelf,30),value(at,(9,9))). init(object(shelf,31),value(at,(2,10))). init(object(shelf,32),value(at,(3,10))). init(object(shelf,33),value(at,(5,10))). init(object(shelf,34),value(at,(6,10))). init(object(shelf,35),value(at,(8,10))). init(object(shelf,36),value(at,(9,10))). occurs(object(robot,1),action(move,(0,-1)),1). occurs(object(robot,2),action(move,(0,-1)),1). occurs(object(robot,3),action(move,(0,-1)),1). occurs(object(robot,5),action(move,(0,-1)),1). occurs(object(robot,6),action(move,(0,-1)),1). occurs(object(robot,7),action(move,(0,-1)),1). occurs(object(robot,8),action(move,(0,-1)),1). occurs(object(robot,9),action(move,(0,-1)),1). occurs(object(robot,10),action(move,(-1,0)),1). occurs(object(robot,11),action(move,(0,-1)),1). occurs(object(robot,12),action(move,(0,-1)),1). occurs(object(robot,13),action(move,(0,-1)),1). occurs(object(robot,14),action(move,(0,-1)),1). occurs(object(robot,15),action(move,(0,-1)),1). occurs(object(robot,16),action(move,(0,-1)),1). occurs(object(robot,18),action(move,(0,-1)),1). occurs(object(robot,19),action(move,(0,1)),1). occurs(object(robot,20),action(move,(0,-1)),1). occurs(object(robot,21),action(move,(0,-1)),1). occurs(object(robot,22),action(move,(0,-1)),1). occurs(object(robot,23),action(move,(0,-1)),1). occurs(object(robot,24),action(move,(0,-1)),1). occurs(object(robot,25),action(move,(0,-1)),1). occurs(object(robot,26),action(move,(0,-1)),1). occurs(object(robot,27),action(move,(1,0)),1). occurs(object(robot,28),action(move,(0,-1)),1). occurs(object(robot,29),action(move,(1,0)),1). occurs(object(robot,30),action(move,(0,-1)),1). occurs(object(robot,31),action(move,(0,-1)),1). occurs(object(robot,32),action(move,(0,-1)),1). occurs(object(robot,33),action(move,(0,-1)),1). occurs(object(robot,34),action(move,(0,-1)),1). occurs(object(robot,35),action(move,(0,-1)),1). occurs(object(robot,36),action(move,(0,-1)),1). occurs(object(robot,1),action(move,(1,0)),2). occurs(object(robot,2),action(move,(0,-1)),2). occurs(object(robot,3),action(move,(0,-1)),2). occurs(object(robot,4),action(move,(-1,0)),2). occurs(object(robot,5),action(move,(0,-1)),2). occurs(object(robot,6),action(move,(0,-1)),2). occurs(object(robot,7),action(move,(0,-1)),2). occurs(object(robot,8),action(move,(-1,0)),2). occurs(object(robot,9),action(move,(0,-1)),2). occurs(object(robot,10),action(move,(0,1)),2). occurs(object(robot,11),action(move,(0,-1)),2). occurs(object(robot,12),action(move,(0,-1)),2). occurs(object(robot,13),action(move,(0,-1)),2). occurs(object(robot,14),action(move,(0,-1)),2). occurs(object(robot,15),action(move,(0,-1)),2). occurs(object(robot,16),action(move,(0,-1)),2). occurs(object(robot,17),action(move,(0,-1)),2). occurs(object(robot,18),action(move,(0,-1)),2). occurs(object(robot,19),action(move,(1,0)),2). occurs(object(robot,20),action(move,(1,0)),2). occurs(object(robot,21),action(move,(0,-1)),2). occurs(object(robot,22),action(move,(0,-1)),2). occurs(object(robot,23),action(move,(0,-1)),2). occurs(object(robot,24),action(move,(0,-1)),2). occurs(object(robot,25),action(move,(0,-1)),2). occurs(object(robot,26),action(move,(0,-1)),2). occurs(object(robot,27),action(move,(1,0)),2). occurs(object(robot,28),action(move,(0,-1)),2). occurs(object(robot,29),action(move,(1,0)),2). occurs(object(robot,30),action(move,(0,-1)),2). occurs(object(robot,31),action(move,(-1,0)),2). occurs(object(robot,32),action(move,(0,-1)),2). occurs(object(robot,33),action(move,(0,-1)),2). occurs(object(robot,34),action(move,(0,-1)),2). occurs(object(robot,35),action(move,(0,-1)),2). occurs(object(robot,36),action(move,(0,-1)),2). occurs(object(robot,1),action(move,(1,0)),3). occurs(object(robot,3),action(move,(0,-1)),3). occurs(object(robot,4),action(move,(0,1)),3). occurs(object(robot,5),action(move,(0,-1)),3). occurs(object(robot,6),action(move,(0,-1)),3). occurs(object(robot,7),action(move,(1,0)),3). occurs(object(robot,8),action(move,(0,-1)),3). occurs(object(robot,9),action(move,(0,-1)),3). occurs(object(robot,10),action(move,(1,0)),3). occurs(object(robot,11),action(move,(0,-1)),3). occurs(object(robot,12),action(move,(0,-1)),3). occurs(object(robot,13),action(move,(0,-1)),3). occurs(object(robot,14),action(move,(0,-1)),3). occurs(object(robot,15),action(move,(0,-1)),3). occurs(object(robot,16),action(move,(0,-1)),3). occurs(object(robot,17),action(move,(0,-1)),3). occurs(object(robot,18),action(move,(1,0)),3). occurs(object(robot,19),action(move,(1,0)),3). occurs(object(robot,20),action(move,(1,0)),3). occurs(object(robot,22),action(move,(0,-1)),3). occurs(object(robot,23),action(move,(1,0)),3). occurs(object(robot,24),action(move,(0,-1)),3). occurs(object(robot,25),action(move,(0,-1)),3). occurs(object(robot,26),action(move,(0,-1)),3). occurs(object(robot,27),action(move,(1,0)),3). occurs(object(robot,28),action(move,(0,-1)),3). occurs(object(robot,29),action(move,(0,-1)),3). occurs(object(robot,30),action(move,(0,-1)),3). occurs(object(robot,31),action(move,(0,-1)),3). occurs(object(robot,32),action(move,(0,-1)),3). occurs(object(robot,33),action(move,(0,-1)),3). occurs(object(robot,34),action(move,(-1,0)),3). occurs(object(robot,35),action(move,(0,-1)),3). occurs(object(robot,36),action(move,(0,-1)),3). occurs(object(robot,1),action(move,(0,-1)),4). occurs(object(robot,2),action(move,(0,-1)),4). occurs(object(robot,3),action(move,(0,-1)),4). occurs(object(robot,5),action(move,(0,-1)),4). occurs(object(robot,6),action(move,(1,0)),4). occurs(object(robot,7),action(move,(0,-1)),4). occurs(object(robot,8),action(move,(0,-1)),4). occurs(object(robot,9),action(move,(0,-1)),4). occurs(object(robot,10),action(move,(0,-1)),4). occurs(object(robot,11),action(move,(0,-1)),4). occurs(object(robot,12),action(move,(0,-1)),4). occurs(object(robot,14),action(move,(0,-1)),4). occurs(object(robot,15),action(move,(0,-1)),4). occurs(object(robot,16),action(move,(0,-1)),4). occurs(object(robot,17),action(move,(0,-1)),4). occurs(object(robot,18),action(move,(0,-1)),4). occurs(object(robot,19),action(move,(0,-1)),4). occurs(object(robot,20),action(move,(1,0)),4). occurs(object(robot,21),action(move,(0,-1)),4). occurs(object(robot,22),action(move,(0,-1)),4). occurs(object(robot,23),action(move,(1,0)),4). occurs(object(robot,24),action(move,(0,-1)),4). occurs(object(robot,25),action(move,(0,-1)),4). occurs(object(robot,26),action(move,(0,-1)),4). occurs(object(robot,27),action(move,(1,0)),4). occurs(object(robot,28),action(move,(0,-1)),4). occurs(object(robot,29),action(move,(0,-1)),4). occurs(object(robot,30),action(move,(0,-1)),4). occurs(object(robot,31),action(move,(0,-1)),4). occurs(object(robot,32),action(move,(0,-1)),4). occurs(object(robot,33),action(move,(0,-1)),4). occurs(object(robot,34),action(move,(0,-1)),4). occurs(object(robot,35),action(move,(0,-1)),4). occurs(object(robot,36),action(move,(0,-1)),4). occurs(object(robot,1),action(move,(0,-1)),5). occurs(object(robot,2),action(move,(0,-1)),5). occurs(object(robot,3),action(move,(0,-1)),5). occurs(object(robot,4),action(move,(0,-1)),5). occurs(object(robot,5),action(move,(0,-1)),5). occurs(object(robot,7),action(move,(0,-1)),5). occurs(object(robot,8),action(move,(0,-1)),5). occurs(object(robot,9),action(move,(0,-1)),5). occurs(object(robot,10),action(move,(0,-1)),5). occurs(object(robot,11),action(move,(0,-1)),5). occurs(object(robot,12),action(move,(0,-1)),5). occurs(object(robot,13),action(move,(1,0)),5). occurs(object(robot,14),action(move,(0,-1)),5). occurs(object(robot,15),action(move,(0,-1)),5). occurs(object(robot,16),action(move,(0,-1)),5). occurs(object(robot,17),action(move,(0,-1)),5). occurs(object(robot,18),action(move,(0,-1)),5). occurs(object(robot,19),action(move,(0,-1)),5). occurs(object(robot,20),action(move,(1,0)),5). occurs(object(robot,21),action(move,(0,-1)),5). occurs(object(robot,22),action(move,(0,-1)),5). occurs(object(robot,23),action(move,(0,-1)),5). occurs(object(robot,24),action(move,(0,-1)),5). occurs(object(robot,25),action(move,(0,-1)),5). occurs(object(robot,26),action(move,(0,-1)),5). occurs(object(robot,27),action(move,(1,0)),5). occurs(object(robot,28),action(move,(0,-1)),5). occurs(object(robot,29),action(move,(0,-1)),5). occurs(object(robot,30),action(move,(0,-1)),5). occurs(object(robot,31),action(move,(0,-1)),5). occurs(object(robot,32),action(move,(0,-1)),5). occurs(object(robot,33),action(move,(0,-1)),5). occurs(object(robot,34),action(move,(0,-1)),5). occurs(object(robot,35),action(move,(0,-1)),5). occurs(object(robot,36),action(move,(0,-1)),5). occurs(object(robot,1),action(move,(0,-1)),6). occurs(object(robot,2),action(move,(0,-1)),6). occurs(object(robot,3),action(move,(0,-1)),6). occurs(object(robot,4),action(move,(0,-1)),6). occurs(object(robot,5),action(move,(0,-1)),6). occurs(object(robot,6),action(move,(0,-1)),6). occurs(object(robot,7),action(move,(0,-1)),6). occurs(object(robot,8),action(move,(0,-1)),6). occurs(object(robot,9),action(move,(0,-1)),6). occurs(object(robot,10),action(move,(0,-1)),6). occurs(object(robot,11),action(move,(0,-1)),6). occurs(object(robot,12),action(move,(0,-1)),6). occurs(object(robot,13),action(move,(0,1)),6). occurs(object(robot,14),action(move,(0,-1)),6). occurs(object(robot,15),action(move,(0,-1)),6). occurs(object(robot,16),action(move,(0,-1)),6). occurs(object(robot,17),action(move,(0,-1)),6). occurs(object(robot,18),action(move,(0,-1)),6). occurs(object(robot,19),action(move,(0,-1)),6). occurs(object(robot,20),action(move,(1,0)),6). occurs(object(robot,21),action(move,(0,-1)),6). occurs(object(robot,22),action(move,(0,-1)),6). occurs(object(robot,23),action(move,(0,-1)),6). occurs(object(robot,24),action(move,(0,-1)),6). occurs(object(robot,25),action(move,(0,-1)),6). occurs(object(robot,26),action(move,(0,-1)),6). occurs(object(robot,27),action(move,(0,-1)),6). occurs(object(robot,28),action(move,(0,1)),6). occurs(object(robot,29),action(move,(0,-1)),6). occurs(object(robot,30),action(move,(0,-1)),6). occurs(object(robot,31),action(move,(0,-1)),6). occurs(object(robot,32),action(move,(0,-1)),6). occurs(object(robot,33),action(move,(0,-1)),6). occurs(object(robot,34),action(move,(0,-1)),6). occurs(object(robot,35),action(move,(0,-1)),6). occurs(object(robot,36),action(move,(0,-1)),6). occurs(object(robot,1),action(move,(0,-1)),7). occurs(object(robot,2),action(move,(0,-1)),7). occurs(object(robot,3),action(move,(0,-1)),7). occurs(object(robot,4),action(move,(0,-1)),7). occurs(object(robot,5),action(move,(0,-1)),7). occurs(object(robot,6),action(move,(1,0)),7). occurs(object(robot,7),action(move,(0,-1)),7). occurs(object(robot,8),action(move,(0,-1)),7). occurs(object(robot,9),action(move,(0,-1)),7). occurs(object(robot,10),action(move,(0,-1)),7). occurs(object(robot,11),action(move,(0,-1)),7). occurs(object(robot,12),action(move,(0,-1)),7). occurs(object(robot,14),action(move,(0,-1)),7). occurs(object(robot,15),action(move,(0,-1)),7). occurs(object(robot,16),action(move,(0,-1)),7). occurs(object(robot,17),action(move,(0,-1)),7). occurs(object(robot,18),action(move,(0,-1)),7). occurs(object(robot,20),action(move,(0,-1)),7). occurs(object(robot,21),action(move,(0,-1)),7). occurs(object(robot,22),action(move,(0,-1)),7). occurs(object(robot,23),action(move,(-1,0)),7). occurs(object(robot,24),action(move,(0,-1)),7). occurs(object(robot,25),action(move,(0,-1)),7). occurs(object(robot,26),action(move,(0,-1)),7). occurs(object(robot,27),action(move,(0,-1)),7). occurs(object(robot,29),action(move,(0,-1)),7). occurs(object(robot,30),action(move,(0,-1)),7). occurs(object(robot,31),action(move,(0,-1)),7). occurs(object(robot,32),action(move,(0,-1)),7). occurs(object(robot,33),action(move,(0,-1)),7). occurs(object(robot,34),action(move,(-1,0)),7). occurs(object(robot,36),action(move,(0,-1)),7). occurs(object(robot,1),action(move,(0,-1)),8). occurs(object(robot,2),action(move,(0,-1)),8). occurs(object(robot,3),action(move,(0,-1)),8). occurs(object(robot,4),action(move,(1,0)),8). occurs(object(robot,5),action(move,(0,-1)),8). occurs(object(robot,6),action(move,(1,0)),8). occurs(object(robot,7),action(move,(0,-1)),8). occurs(object(robot,8),action(move,(1,0)),8). occurs(object(robot,9),action(move,(0,-1)),8). occurs(object(robot,10),action(move,(0,-1)),8). occurs(object(robot,11),action(move,(0,-1)),8). occurs(object(robot,12),action(move,(0,-1)),8). occurs(object(robot,14),action(move,(0,-1)),8). occurs(object(robot,15),action(move,(0,-1)),8). occurs(object(robot,16),action(move,(0,-1)),8). occurs(object(robot,17),action(move,(0,-1)),8). occurs(object(robot,18),action(move,(0,-1)),8). occurs(object(robot,19),action(move,(0,-1)),8). occurs(object(robot,20),action(move,(0,-1)),8). occurs(object(robot,21),action(move,(0,-1)),8). occurs(object(robot,22),action(move,(0,-1)),8). occurs(object(robot,23),action(move,(0,-1)),8). occurs(object(robot,24),action(move,(0,-1)),8). occurs(object(robot,25),action(move,(-1,0)),8). occurs(object(robot,26),action(move,(0,-1)),8). occurs(object(robot,27),action(move,(0,-1)),8). occurs(object(robot,30),action(move,(-1,0)),8). occurs(object(robot,31),action(move,(0,-1)),8). occurs(object(robot,32),action(move,(0,-1)),8). occurs(object(robot,33),action(move,(0,-1)),8). occurs(object(robot,34),action(move,(0,-1)),8). occurs(object(robot,35),action(move,(0,1)),8). occurs(object(robot,1),action(move,(0,-1)),9). occurs(object(robot,3),action(move,(-1,0)),9). occurs(object(robot,5),action(move,(0,-1)),9). occurs(object(robot,6),action(move,(0,-1)),9). occurs(object(robot,9),action(move,(0,-1)),9). occurs(object(robot,10),action(move,(-1,0)),9). occurs(object(robot,11),action(move,(0,-1)),9). occurs(object(robot,12),action(move,(0,-1)),9). occurs(object(robot,14),action(move,(0,-1)),9). occurs(object(robot,15),action(move,(0,-1)),9). occurs(object(robot,16),action(move,(-1,0)),9). occurs(object(robot,17),action(move,(0,-1)),9). occurs(object(robot,19),action(move,(0,-1)),9). occurs(object(robot,20),action(move,(0,-1)),9). occurs(object(robot,21),action(move,(0,-1)),9). occurs(object(robot,22),action(move,(0,-1)),9). occurs(object(robot,24),action(move,(0,-1)),9). occurs(object(robot,25),action(move,(0,-1)),9). occurs(object(robot,26),action(move,(-1,0)),9). occurs(object(robot,27),action(move,(0,-1)),9). occurs(object(robot,28),action(move,(0,-1)),9). occurs(object(robot,29),action(move,(0,-1)),9). occurs(object(robot,30),action(move,(-1,0)),9). occurs(object(robot,31),action(move,(0,-1)),9). occurs(object(robot,32),action(move,(0,-1)),9). occurs(object(robot,33),action(move,(0,-1)),9). occurs(object(robot,35),action(move,(-1,0)),9). occurs(object(robot,36),action(move,(-1,0)),9). occurs(object(robot,1),action(move,(0,-1)),10). occurs(object(robot,2),action(move,(0,-1)),10). occurs(object(robot,3),action(move,(0,-1)),10). occurs(object(robot,4),action(move,(-1,0)),10). occurs(object(robot,6),action(move,(-1,0)),10). occurs(object(robot,7),action(move,(1,0)),10). occurs(object(robot,9),action(move,(0,-1)),10). occurs(object(robot,12),action(move,(0,-1)),10). occurs(object(robot,13),action(move,(0,-1)),10). occurs(object(robot,14),action(move,(0,-1)),10). occurs(object(robot,15),action(move,(0,-1)),10). occurs(object(robot,16),action(move,(0,-1)),10). occurs(object(robot,17),action(move,(1,0)),10). occurs(object(robot,20),action(move,(0,-1)),10). occurs(object(robot,22),action(move,(0,-1)),10). occurs(object(robot,24),action(move,(0,-1)),10). occurs(object(robot,27),action(move,(0,-1)),10). occurs(object(robot,30),action(move,(0,1)),10). occurs(object(robot,31),action(move,(1,0)),10). occurs(object(robot,32),action(move,(0,1)),10). occurs(object(robot,33),action(move,(-1,0)),10). occurs(object(robot,35),action(move,(1,0)),10). occurs(object(robot,36),action(move,(0,-1)),10).
SATISFIABLE

Models       : 1+
Calls        : 1
Time         : 0.553s (Solving: 0.08s 1st Model: 0.08s Unsat: 0.00s)
CPU Time     : 0.548s

Choices      : 3448    
Conflicts    : 430      (Analyzed: 430)
Restarts     : 3        (Average: 143.33 Last: 29)
Model-Level  : 666.0   
Problems     : 1        (Average Length: 0.00 Splits: 0)
Lemmas       : 430      (Deleted: 0)
  Binary     : 2        (Ratio:   0.47%)
  Ternary    : 1        (Ratio:   0.23%)
  Conflict   : 430      (Average Length:   86.0 Ratio: 100.00%) 
  Loop       : 0        (Average Length:    0.0 Ratio:   0.00%) 
  Other      : 0        (Average Length:    0.0 Ratio:   0.00%) 
Backjumps    : 430      (Average:  3.33 Max: 205 Sum:   1432)
  Executed   : 430      (Average:  3.33 Max: 205 Sum:   1432 Ratio: 100.00%)
  Bounded    : 0        (Average:  0.00 Max:   0 Sum:      0 Ratio:   0.00%)

Rules        : 142027   (Original: 123322)
  Choice     : 360     
Atoms        : 26785   
Bodies       : 89240    (Original: 71223)
  Count      : 986      (Original: 1888)
Equivalences : 40037    (Atom=Atom: 1460 Body=Body: 1929 Other: 36648)
Tight        : Yes
Variables    : 76942    (Eliminated:    0 Frozen: 14934)
Constraints  : 297502   (Binary:  74.8% Ternary:  20.0% Other:   5.2%)

